
d1 = 1;
d2 = 1;
c1 = 70;  % The link Capacity
% The node capacities
c2 = 60;
c3 = 40;


Nodes = array1d(1..8,[1, 2, 3, 4, 5, 6, 7, 8,]);

Nodes_Capacities = array1d(1..8, [c2, c3, c3, c3, c3, c3, c2, c3]);

Link_info = array2d(1..24, 1..4,[
1, 2, 1, c1, 1, 4, 1, c1, 1, 5, 1, c1, 
2, 1, 1, c1, 2, 3, 1, c1, 2, 6, 1, c1, 
3, 2, 1, c1, 3, 4, 1, c1, 3, 7, 1, c1, 
4, 3, 1, c1, 4, 8, 1, c1, 4, 1, 1, c1,
5, 1, 1, c1, 5, 6, 1, c1, 5, 8, 1, c1,
6, 2, 1, c1, 6, 5, 1, c1, 6, 7, 1, c1,
7, 3, 1, c1, 7, 6, 1, c1, 7, 8, 1, c1, 
8, 4, 1, c1, 8, 5, 1, c1, 8, 7, 1, c1, 
]);


Flow_demands = [20,20,20];
%Limits = [10,10,10];
s = [1,1,1];
t = [7,7,7];

/*
Flow_demands = [20];
s = [1];
t = [7];
*/










